/*********************************************
 * OPL 12.9.0.0 Data
 * Author: Administrator
 * Creation Date: 2019年10月5日 at 下午4:26:16
 *********************************************/
nbJobs =5;
nbStages =5;
nbMach =[0,3,2,3,3,3];
nbWork =[0,2,2,2,2,2];
allMach =[0,3,5,8,11,14];
B=10000;
OpDurations = [
[49,77,83,51,69,71,82,92,49,55,71,39,41,43],
[18,19,19,50,55,71,75,113,83,97,111,39,42,51],
[2,2,2,25,32,70,83,93,64,76,93,44,56,57],
[86,101,104,83,105,91,94,102,44,51,53,74,88,107],
[63,67,71,19,21,64,65,70,45,50,52,17,23,26]
];
OpDue = [932,896,728,1277,673];

 